(declare-fun X_0 () Real)
(declare-fun X_1 () Real)
(declare-fun Y_0 () Real)
(declare-fun Y_1 () Real)
(declare-fun Y_2 () Real)

(assert (<= X_0 -0.062))
(assert (>= X_0 -0.162))
(assert (<= X_1 1.698))
(assert (>= X_1 1.598))

(assert (<= Y_0 7.1))
(assert (>= Y_0 7.09))
(assert (<= Y_1 7.4))
(assert (>= Y_1 7.39))
(assert (<= Y_2 7.41))
(assert (>= Y_2 7.4))

